column=7;
row=7;
max=5;
left=[4, 5, 0, 2, 3, 0, 2];
right=[2, 0, 5, 3, 1, 0, 0];
top=[4, 1, 1, 3, 5, 2, 2];
bottom=[3, 2, 4, 0, 3, 0, 1];
Board=[|4,1,0,3,5,2,0|5,3,1,0,0,0,2|1,0,3,0,0,0,5|2,5,0,1,0,4,3|3,4,5,2,0,1,0|0,0,0,5,1,0,0|0,0,4,0,3,5,1|]